* ENCODING=ISO-8859-1
NAME          IloCplex
ROWS
 N  obj     
 E  c1      
 E  c2      
 E  c3      
 E  c4      
 E  c5      
 E  c6      
 E  c7      
 E  c8      
 E  c9      
 E  c10     
 E  c11     
 E  c12     
 E  c13     
 E  c14     
 E  c15     
 E  c16     
 E  c17     
 E  c18     
 E  c19     
 E  c20     
COLUMNS
    MARK0000  'MARKER'                 'INTORG'
    x1        c1                              1
    x1        c8                             -1
    x1        c9                             -1
    x1        c10                            -1
    x1        c11                             1
    x1        c12                             1
    x1        c13                             1
    x1        c14                            -1
    x1        c15                            -1
    x1        c16                            -1
    x1        c17                            -1
    x1        c18                            -1
    x1        c19                            -1
    x1        c20                            -1
    x2        c1                              1
    x2        c4                              1
    x2        c6                              1
    x2        c7                              1
    x2        c8                             -1
    x2        c9                             -1
    x2        c11                             1
    x2        c14                            -1
    x2        c16                            -1
    x3        c1                              1
    x3        c8                             -1
    x3        c9                             -1
    x3        c10                             1
    x3        c11                             1
    x3        c12                            -1
    x3        c13                            -1
    x3        c14                            -1
    x3        c15                             1
    x3        c16                            -1
    x3        c17                             1
    x3        c18                            -1
    x3        c19                             1
    x3        c20                            -1
    x4        c1                              1
    x4        c3                              1
    x4        c5                              1
    x4        c7                              1
    x4        c8                             -1
    x4        c10                            -1
    x4        c12                             1
    x4        c15                            -1
    x4        c18                            -1
    x5        c1                              1
    x5        c3                              1
    x5        c4                              1
    x5        c5                              1
    x5        c6                              1
    x5        c7                              1
    x5        c8                             -1
    x6        c1                              1
    x6        c3                              1
    x6        c5                              1
    x6        c7                              1
    x6        c8                             -1
    x6        c10                             1
    x6        c12                            -1
    x6        c15                             1
    x6        c18                            -1
    x7        c1                              1
    x7        c8                             -1
    x7        c9                              1
    x7        c10                            -1
    x7        c11                            -1
    x7        c12                             1
    x7        c13                            -1
    x7        c14                             1
    x7        c15                            -1
    x7        c16                            -1
    x7        c17                             1
    x7        c18                            -1
    x7        c19                            -1
    x7        c20                             1
    x8        c1                              1
    x8        c4                              1
    x8        c6                              1
    x8        c7                              1
    x8        c8                             -1
    x8        c9                              1
    x8        c11                            -1
    x8        c14                             1
    x8        c16                            -1
    x9        c1                              1
    x9        c8                             -1
    x9        c9                              1
    x9        c10                             1
    x9        c11                            -1
    x9        c12                            -1
    x9        c13                             1
    x9        c14                             1
    x9        c15                             1
    x9        c16                            -1
    x9        c17                            -1
    x9        c18                            -1
    x9        c19                             1
    x9        c20                             1
    x10       c1                              1
    x10       c2                              1
    x10       c5                              1
    x10       c6                              1
    x10       c9                             -1
    x10       c10                            -1
    x10       c13                             1
    x10       c19                            -1
    x10       c20                            -1
    x11       c1                              1
    x11       c2                              1
    x11       c4                              1
    x11       c5                              1
    x11       c6                              1
    x11       c7                              1
    x11       c9                             -1
    x12       c1                              1
    x12       c2                              1
    x12       c5                              1
    x12       c6                              1
    x12       c9                             -1
    x12       c10                             1
    x12       c13                            -1
    x12       c19                             1
    x12       c20                            -1
    x13       c1                              1
    x13       c2                              1
    x13       c3                              1
    x13       c5                              1
    x13       c6                              1
    x13       c7                              1
    x13       c10                            -1
    x14       c1                              1
    x14       c2                              1
    x14       c3                              1
    x14       c5                              1
    x14       c6                              1
    x14       c7                              1
    x14       c10                             1
    x15       c1                              1
    x15       c2                              1
    x15       c5                              1
    x15       c6                              1
    x15       c9                              1
    x15       c10                            -1
    x15       c13                            -1
    x15       c19                            -1
    x15       c20                             1
    x16       c1                              1
    x16       c2                              1
    x16       c4                              1
    x16       c5                              1
    x16       c6                              1
    x16       c7                              1
    x16       c9                              1
    x17       c1                              1
    x17       c2                              1
    x17       c5                              1
    x17       c6                              1
    x17       c9                              1
    x17       c10                             1
    x17       c13                             1
    x17       c19                             1
    x17       c20                             1
    x18       c1                              1
    x18       c8                              1
    x18       c9                             -1
    x18       c10                            -1
    x18       c11                            -1
    x18       c12                            -1
    x18       c13                             1
    x18       c14                            -1
    x18       c15                            -1
    x18       c16                             1
    x18       c17                             1
    x18       c18                             1
    x18       c19                            -1
    x18       c20                            -1
    x19       c1                              1
    x19       c4                              1
    x19       c6                              1
    x19       c7                              1
    x19       c8                              1
    x19       c9                             -1
    x19       c11                            -1
    x19       c14                            -1
    x19       c16                             1
    x20       c1                              1
    x20       c8                              1
    x20       c9                             -1
    x20       c10                             1
    x20       c11                            -1
    x20       c12                             1
    x20       c13                            -1
    x20       c14                            -1
    x20       c15                             1
    x20       c16                             1
    x20       c17                            -1
    x20       c18                             1
    x20       c19                             1
    x20       c20                            -1
    x21       c1                              1
    x21       c3                              1
    x21       c5                              1
    x21       c7                              1
    x21       c8                              1
    x21       c10                            -1
    x21       c12                            -1
    x21       c15                            -1
    x21       c18                             1
    x22       c1                              1
    x22       c3                              1
    x22       c4                              1
    x22       c5                              1
    x22       c6                              1
    x22       c7                              1
    x22       c8                              1
    x23       c1                              1
    x23       c3                              1
    x23       c5                              1
    x23       c7                              1
    x23       c8                              1
    x23       c10                             1
    x23       c12                             1
    x23       c15                             1
    x23       c18                             1
    x24       c1                              1
    x24       c8                              1
    x24       c9                              1
    x24       c10                            -1
    x24       c11                             1
    x24       c12                            -1
    x24       c13                            -1
    x24       c14                             1
    x24       c15                            -1
    x24       c16                             1
    x24       c17                            -1
    x24       c18                             1
    x24       c19                            -1
    x24       c20                             1
    x25       c1                              1
    x25       c4                              1
    x25       c6                              1
    x25       c7                              1
    x25       c8                              1
    x25       c9                              1
    x25       c11                             1
    x25       c14                             1
    x25       c16                             1
    x26       c1                              1
    x26       c8                              1
    x26       c9                              1
    x26       c10                             1
    x26       c11                             1
    x26       c12                             1
    x26       c13                             1
    x26       c14                             1
    x26       c15                             1
    x26       c16                             1
    x26       c17                             1
    x26       c18                             1
    x26       c19                             1
    x26       c20                             1
    MARK0001  'MARKER'                 'INTEND'
RHS
    rhs       c1                              8
    rhs       c2                              2
    rhs       c3                              2
    rhs       c4                              2
    rhs       c5                              4
    rhs       c6                              4
    rhs       c7                              4
BOUNDS
 UP bnd       x1                              1
 UP bnd       x2                              1
 UP bnd       x3                              1
 UP bnd       x4                              1
 UP bnd       x5                              1
 UP bnd       x6                              1
 UP bnd       x7                              1
 UP bnd       x8                              1
 UP bnd       x9                              1
 UP bnd       x10                             1
 UP bnd       x11                             1
 UP bnd       x12                             1
 UP bnd       x13                             1
 UP bnd       x14                             1
 UP bnd       x15                             1
 UP bnd       x16                             1
 UP bnd       x17                             1
 UP bnd       x18                             1
 UP bnd       x19                             1
 UP bnd       x20                             1
 UP bnd       x21                             1
 UP bnd       x22                             1
 UP bnd       x23                             1
 UP bnd       x24                             1
 UP bnd       x25                             1
 UP bnd       x26                             1
ENDATA
